
se = 40; % nombre de sessions
gr = 20; % nombre de grups de treball
cl = 7; % nombre de slots
minPapersPerSlot = 3; % minim nombre d'articles per sessio i slot
maxSesionsPar = 14; % maxim nombre de sessions paraleles

npMax = [3, 4, 4, 5, 6, 3, 5]; % nombre maxim de papers per slot

np = [4, 3, 5, 13, 4, 3, 7, 15, 13, 13, 14, 13, 3, 3, 3, 12, 18, 3, 17, 9, 3, 3, 3, 9, 8, 11, 5, 3, 3, 3, 9, 13, 6, 3, 16, 3, 9, 3, 3, 3]; % nombre de papers acceptats a cada sessio

WG = [ {1}, {}, {2,3,4}, {}, {5}, {6}, {7}, {8}, {9}, {10}, {11}, {}, {12}, {}, {}, {13}, {}, {}, {}, {14}, {15,16}, {17}, {18,19,20}, {1}, {2}, {3}, {}, {4}, {5}, {}, {6}, {7}, {}, {}, {}, {8,9,10}, {11}, {12}, {13}, {} ]; % grups per sessio

